multiobj/instances/uniform/Ter.5.2.0.40.1.in
5 2
0 771 544 977 248 
771 0 574 244 593 
544 574 0 691 433 
977 244 691 0 73 
248 593 433 73 0 
0 753 943 862 842 
753 0 327 409 668 
943 327 0 912 701 
862 409 912 0 441 
842 668 701 441 0 
0 210 902 571 569 
210 0 273 685 674 
902 273 0 979 473 
571 685 979 0 408 
569 674 473 408 0 
