multiobj/solutions/Ter.5.2.0.40.1.out
3 2
4 0 3 1 2 
6179196 5328658 
4 2 3 1 0 
6372802 5201090 
1 0 3 4 2 
6662704 4850876 
